
Log for '/var/folders/wb/6pm8s60x797b47qg789x82sc0000gn/T/2adc038ec3c24af697d14de219915312-pulp.lp' Clone_1 (V12.10.0.0) Thu Oct  1 17:45:24 2020

Advanced basis not built.

Log for '/var/folders/wb/6pm8s60x797b47qg789x82sc0000gn/T/2adc038ec3c24af697d14de219915312-pulp.lp' Clone_1 (V12.10.0.0) Thu Oct  1 17:48:23 2020

Tried aggregator 1 time.
LP Presolve eliminated 7712 rows and 3198 columns.
All rows and columns eliminated.
Presolve time = 0.00 sec. (3.09 ticks)

Total time on 1 threads = 0.00 sec. (101.19 ticks)

Dual simplex solved model.


Log for '/var/folders/wb/6pm8s60x797b47qg789x82sc0000gn/T/9a7cbb15cb134ff5a7febeaed9bd2f7f-pulp.lp' Clone_1 (V12.10.0.0) Thu Oct  1 17:48:25 2020


Log for '/var/folders/wb/6pm8s60x797b47qg789x82sc0000gn/T/9a7cbb15cb134ff5a7febeaed9bd2f7f-pulp.lp' Clone_1 (V12.10.0.0) Thu Oct  1 17:51:23 2020

Tried aggregator 1 time.
LP Presolve eliminated 7712 rows and 3198 columns.
All rows and columns eliminated.
Presolve time = 0.00 sec. (3.10 ticks)

Total time on 1 threads = 0.00 sec. (100.56 ticks)

Dual simplex solved model.


Log for '/var/folders/wb/6pm8s60x797b47qg789x82sc0000gn/T/7ac01fc37cce47c0950f4abd1fcf915f-pulp.lp' Clone_1 (V12.10.0.0) Thu Oct  1 17:51:24 2020


Log for '/var/folders/wb/6pm8s60x797b47qg789x82sc0000gn/T/7ac01fc37cce47c0950f4abd1fcf915f-pulp.lp' Clone_1 (V12.10.0.0) Thu Oct  1 17:54:24 2020

Tried aggregator 1 time.
LP Presolve eliminated 5862 rows and 8244 columns.
All rows and columns eliminated.
Presolve time = 0.00 sec. (3.19 ticks)

Total time on 1 threads = 0.01 sec. (101.08 ticks)

Dual simplex solved model.


Log for '/var/folders/wb/6pm8s60x797b47qg789x82sc0000gn/T/ba9ed85d19be4d9caadb24dce7c990f6-pulp.lp' Clone_1 (V12.10.0.0) Thu Oct  1 17:55:28 2020


Log for '/var/folders/wb/6pm8s60x797b47qg789x82sc0000gn/T/ba9ed85d19be4d9caadb24dce7c990f6-pulp.lp' Clone_1 (V12.10.0.0) Thu Oct  1 17:57:25 2020

Tried aggregator 1 time.
LP Presolve eliminated 26120 rows and 10326 columns.
All rows and columns eliminated.
Presolve time = 0.01 sec. (10.56 ticks)

Total time on 1 threads = 0.02 sec. (115.22 ticks)

Dual simplex solved model.


Log for '/var/folders/wb/6pm8s60x797b47qg789x82sc0000gn/T/55a61d392f55447f86711b9a48fb1992-pulp.lp' Clone_1 (V12.10.0.0) Thu Oct  1 17:58:32 2020

Advanced basis not built.

Log for '/var/folders/wb/6pm8s60x797b47qg789x82sc0000gn/T/55a61d392f55447f86711b9a48fb1992-pulp.lp' Clone_1 (V12.10.0.0) Thu Oct  1 18:00:27 2020

Tried aggregator 1 time.
LP Presolve eliminated 26120 rows and 10326 columns.
All rows and columns eliminated.
Presolve time = 0.01 sec. (10.58 ticks)

Total time on 1 threads = 0.02 sec. (115.24 ticks)

Dual simplex solved model.


Log for '/var/folders/wb/6pm8s60x797b47qg789x82sc0000gn/T/e09912533fea44289a87e678c3ae0a4f-pulp.lp' Clone_1 (V12.10.0.0) Thu Oct  1 19:37:32 2020


Log for '/var/folders/wb/6pm8s60x797b47qg789x82sc0000gn/T/e09912533fea44289a87e678c3ae0a4f-pulp.lp' Clone_1 (V12.10.0.0) Thu Oct  1 21:37:32 2020

Tried aggregator 1 time.
LP Presolve eliminated 7712 rows and 3198 columns.
All rows and columns eliminated.
Presolve time = 0.00 sec. (3.09 ticks)
Parallel mode: deterministic, using up to 4 threads for concurrent optimization:
 * Starting dual Simplex on 1 thread...
 * Starting primal Simplex on 1 thread...

Log for '/var/folders/wb/6pm8s60x797b47qg789x82sc0000gn/T/e09912533fea44289a87e678c3ae0a4f-pulp.lp' Clone_1 (V12.10.0.0) Thu Oct  1 21:37:32 2020

Using steepest-edge.

Total time on 4 threads = 0.01 sec. (198.11 ticks)

Dual simplex solved model.


Log for '/var/folders/wb/6pm8s60x797b47qg789x82sc0000gn/T/bfc918df53164e91b295cfac8d9b600d-pulp.lp' Clone_1 (V12.10.0.0) Thu Oct  1 21:37:36 2020


Log for '/var/folders/wb/6pm8s60x797b47qg789x82sc0000gn/T/bfc918df53164e91b295cfac8d9b600d-pulp.lp' Clone_1 (V12.10.0.0) Thu Oct  1 23:37:42 2020

Tried aggregator 1 time.
LP Presolve eliminated 7712 rows and 3198 columns.
All rows and columns eliminated.
Presolve time = 0.00 sec. (3.10 ticks)
Parallel mode: deterministic, using up to 4 threads for concurrent optimization:
 * Starting dual Simplex on 1 thread...
 * Starting primal Simplex on 1 thread...

Log for '/var/folders/wb/6pm8s60x797b47qg789x82sc0000gn/T/bfc918df53164e91b295cfac8d9b600d-pulp.lp' Clone_1 (V12.10.0.0) Thu Oct  1 23:37:42 2020

Using steepest-edge.

Total time on 4 threads = 6.31 sec. (198.11 ticks)

Dual simplex solved model.


Log for '/var/folders/wb/6pm8s60x797b47qg789x82sc0000gn/T/b96773a76a804e359111200c94fe394b-pulp.lp' Clone_1 (V12.10.0.0) Thu Oct  1 23:37:46 2020


Log for '/var/folders/wb/6pm8s60x797b47qg789x82sc0000gn/T/b96773a76a804e359111200c94fe394b-pulp.lp' Clone_1 (V12.10.0.0) Thu Oct  1 23:40:14 2020

Tried aggregator 1 time.
LP Presolve eliminated 5862 rows and 8244 columns.
All rows and columns eliminated.
Presolve time = 0.00 sec. (3.19 ticks)
Parallel mode: deterministic, using up to 4 threads for concurrent optimization:
 * Starting dual Simplex on 1 thread...
 * Starting primal Simplex on 1 thread...

Log for '/var/folders/wb/6pm8s60x797b47qg789x82sc0000gn/T/b96773a76a804e359111200c94fe394b-pulp.lp' Clone_1 (V12.10.0.0) Thu Oct  1 23:40:14 2020

Using steepest-edge.

Total time on 4 threads = 0.01 sec. (197.95 ticks)

Dual simplex solved model.


Log for '/var/folders/wb/6pm8s60x797b47qg789x82sc0000gn/T/98c532d59ef0455ca8ce1d97f6d355da-pulp.lp' Clone_1 (V12.10.0.0) Thu Oct  1 23:40:37 2020

Advanced basis not built.

Log for '/var/folders/wb/6pm8s60x797b47qg789x82sc0000gn/T/98c532d59ef0455ca8ce1d97f6d355da-pulp.lp' Clone_1 (V12.10.0.0) Fri Oct  2 01:40:15 2020

Tried aggregator 1 time.
LP Presolve eliminated 26120 rows and 10326 columns.
All rows and columns eliminated.
Presolve time = 0.01 sec. (10.56 ticks)

Log for '/var/folders/wb/6pm8s60x797b47qg789x82sc0000gn/T/98c532d59ef0455ca8ce1d97f6d355da-pulp.lp' Clone_1 (V12.10.0.0) Fri Oct  2 01:40:15 2020

Using steepest-edge.
Parallel mode: deterministic, using up to 4 threads for concurrent optimization:
 * Starting dual Simplex on 1 thread...
 * Starting primal Simplex on 1 thread...

Total time on 4 threads = 0.03 sec. (215.89 ticks)

Dual simplex solved model.


Log for '/var/folders/wb/6pm8s60x797b47qg789x82sc0000gn/T/de0a4ef7e23c494e85455b4f9255fd6f-pulp.lp' Clone_1 (V12.10.0.0) Fri Oct  2 01:40:31 2020


Log for '/var/folders/wb/6pm8s60x797b47qg789x82sc0000gn/T/de0a4ef7e23c494e85455b4f9255fd6f-pulp.lp' Clone_1 (V12.10.0.0) Fri Oct  2 03:40:18 2020

Tried aggregator 1 time.
LP Presolve eliminated 26120 rows and 10326 columns.
All rows and columns eliminated.
Presolve time = 0.01 sec. (10.58 ticks)
Parallel mode: deterministic, using up to 4 threads for concurrent optimization:
 * Starting dual Simplex on 1 thread...
 * Starting primal Simplex on 1 thread...

Log for '/var/folders/wb/6pm8s60x797b47qg789x82sc0000gn/T/de0a4ef7e23c494e85455b4f9255fd6f-pulp.lp' Clone_1 (V12.10.0.0) Fri Oct  2 03:40:18 2020

Using steepest-edge.

Total time on 4 threads = 0.03 sec. (215.91 ticks)

Dual simplex solved model.


Log for '/var/folders/wb/6pm8s60x797b47qg789x82sc0000gn/T/c68964044c85429e9df29927b9f55c7e-pulp.lp' Clone_1 (V12.10.0.0) Fri Oct  2 12:48:41 2020

Advanced basis not built.

Log for '/var/folders/wb/6pm8s60x797b47qg789x82sc0000gn/T/c68964044c85429e9df29927b9f55c7e-pulp.lp' Clone_1 (V12.10.0.0) Fri Oct  2 15:28:18 2020

Tried aggregator 1 time.
LP Presolve eliminated 26120 rows and 10326 columns.
All rows and columns eliminated.
Presolve time = 0.01 sec. (10.56 ticks)

Log for '/var/folders/wb/6pm8s60x797b47qg789x82sc0000gn/T/c68964044c85429e9df29927b9f55c7e-pulp.lp' Clone_1 (V12.10.0.0) Fri Oct  2 15:28:18 2020

Using steepest-edge.
Parallel mode: deterministic, using up to 4 threads for concurrent optimization:
 * Starting dual Simplex on 1 thread...
 * Starting primal Simplex on 1 thread...

Total time on 4 threads = 0.04 sec. (215.89 ticks)

Dual simplex solved model.


Log for '/var/folders/wb/6pm8s60x797b47qg789x82sc0000gn/T/0c7e55972ad54b8aaef482c1c5888680-pulp.lp' Clone_1 (V12.10.0.0) Fri Oct  2 15:28:39 2020


Log for '/var/folders/wb/6pm8s60x797b47qg789x82sc0000gn/T/0c7e55972ad54b8aaef482c1c5888680-pulp.lp' Clone_1 (V12.10.0.0) Fri Oct  2 18:08:21 2020

Tried aggregator 1 time.
LP Presolve eliminated 26120 rows and 10326 columns.
All rows and columns eliminated.
Presolve time = 0.01 sec. (10.58 ticks)

Log for '/var/folders/wb/6pm8s60x797b47qg789x82sc0000gn/T/0c7e55972ad54b8aaef482c1c5888680-pulp.lp' Clone_1 (V12.10.0.0) Fri Oct  2 18:08:21 2020

Using steepest-edge.
Parallel mode: deterministic, using up to 4 threads for concurrent optimization:
 * Starting dual Simplex on 1 thread...
 * Starting primal Simplex on 1 thread...

Total time on 4 threads = 0.03 sec. (215.91 ticks)

Dual simplex solved model.

